;--------------------------------------------------------------------------
; Benchmark created with Zazu
; Benchmark: 		wensley_norm_inv2_2xlen3
; Created:   		2022-01-11 18:12
; Generator of the ideal: 
; 		 -2*b00*y00 + a00*d00 + 2*b00*y - a*d00
; 		 -b*d00 + b00*d
; 		 a*d - 2*b*y + 2*b*y00 - a00*d
; Testing invariant: a*b^4*b00*d^4 + a*b^5*d^3*d00*y + a^2*b^4*b00*d^6*y^2 - a*b^6*d00*y^2 - a*b^5*b00*d*y + a*b^6*d^2*d00*y^2 - a^2*b^5*b00*d^5*y^4 - a^2*b^5*b00*d^3*y^3 - a*b^6*d^2*d00*y^3 - a*b^5*d^3*d00 + a*b^5*b00*d^3*y^3 - a*b^4*b00*d^4*y - a*b^5*b00*d^3*y^2 + a*b^6*d00*y - a^2*b^5*d^5*d00*y^2 + a*b^5*b00*d*y^2 + a^2*b^6*d^4*d00*y^4 + a^2*b^6*d^2*d00*y^3
;--------------------------------------------------------------------------

(set-logic NRA)
(set-option :produce-proofs true)

(declare-const a00 Real)
(declare-const b00 Real)
(declare-const d00 Real)
(declare-const y00 Real)

(assert 
	(exists
		((a Real) (b Real) (d Real) (y Real))
		(and
			(= (- (+ (* (- 2) b00 y00) (* a00 d00) (* 2 b00 y)) (* a d00)) 0)
			(= (+ (* (- 1) b d00) (* b00 d)) 0)
			(= (- (+ (- (* a d) (* 2 b y)) (* 2 b y00)) (* a00 d)) 0)

			(or
				(not (= (+ (- (+ (- (+ (- (+ (- (+ (* a (/ b 2) (/ b 2) (/ b 2) (/ b 2) b00 (/ d 2) (/ d 2) (/ d 2) (/ d 2)) (* a (/ b 2) (/ b 2) (/ b 2) (/ b 2) (/ b 2) (/ d 2) (/ d 2) (/ d 2) d00 y) (* a a (/ b 2) (/ b 2) (/ b 2) (/ b 2) b00 (/ d 2) (/ d 2) (/ d 2) (/ d 2) (/ d 2) (/ d 2) y y)) (* a (/ b 2) (/ b 2) (/ b 2) (/ b 2) (/ b 2) (/ b 2) d00 y y) (* a (/ b 2) (/ b 2) (/ b 2) (/ b 2) (/ b 2) b00 (/ d 2) y)) (* a (/ b 2) (/ b 2) (/ b 2) (/ b 2) (/ b 2) (/ b 2) (/ d 2) (/ d 2) d00 y y)) (* a a (/ b 2) (/ b 2) (/ b 2) (/ b 2) (/ b 2) b00 (/ d 2) (/ d 2) (/ d 2) (/ d 2) (/ d 2) y y y y) (* a a (/ b 2) (/ b 2) (/ b 2) (/ b 2) (/ b 2) b00 (/ d 2) (/ d 2) (/ d 2) y y y) (* a (/ b 2) (/ b 2) (/ b 2) (/ b 2) (/ b 2) (/ b 2) (/ d 2) (/ d 2) d00 y y y) (* a (/ b 2) (/ b 2) (/ b 2) (/ b 2) (/ b 2) (/ d 2) (/ d 2) (/ d 2) d00)) (* a (/ b 2) (/ b 2) (/ b 2) (/ b 2) (/ b 2) b00 (/ d 2) (/ d 2) (/ d 2) y y y)) (* a (/ b 2) (/ b 2) (/ b 2) (/ b 2) b00 (/ d 2) (/ d 2) (/ d 2) (/ d 2) y) (* a (/ b 2) (/ b 2) (/ b 2) (/ b 2) (/ b 2) b00 (/ d 2) (/ d 2) (/ d 2) y y)) (* a (/ b 2) (/ b 2) (/ b 2) (/ b 2) (/ b 2) (/ b 2) d00 y)) (* a a (/ b 2) (/ b 2) (/ b 2) (/ b 2) (/ b 2) (/ d 2) (/ d 2) (/ d 2) (/ d 2) (/ d 2) d00 y y)) (* a (/ b 2) (/ b 2) (/ b 2) (/ b 2) (/ b 2) b00 (/ d 2) y y) (* a a (/ b 2) (/ b 2) (/ b 2) (/ b 2) (/ b 2) (/ b 2) (/ d 2) (/ d 2) (/ d 2) (/ d 2) d00 y y y y) (* a a (/ b 2) (/ b 2) (/ b 2) (/ b 2) (/ b 2) (/ b 2) (/ d 2) (/ d 2) d00 y y y)) 0))
				(not (= (+ (- (+ (- (+ (- (+ (- (+ (* (+ a b) (/ b 2) (/ b 2) (/ b 2) (/ b 2) b00 (/ d 2) (/ d 2) (/ d 2) (/ d 2)) (* (+ a b) (/ b 2) (/ b 2) (/ b 2) (/ b 2) (/ b 2) (/ d 2) (/ d 2) (/ d 2) d00 (+ y (/ d 2))) (* (+ a b) (+ a b) (/ b 2) (/ b 2) (/ b 2) (/ b 2) b00 (/ d 2) (/ d 2) (/ d 2) (/ d 2) (/ d 2) (/ d 2) (+ y (/ d 2)) (+ y (/ d 2)))) (* (+ a b) (/ b 2) (/ b 2) (/ b 2) (/ b 2) (/ b 2) (/ b 2) d00 (+ y (/ d 2)) (+ y (/ d 2))) (* (+ a b) (/ b 2) (/ b 2) (/ b 2) (/ b 2) (/ b 2) b00 (/ d 2) (+ y (/ d 2)))) (* (+ a b) (/ b 2) (/ b 2) (/ b 2) (/ b 2) (/ b 2) (/ b 2) (/ d 2) (/ d 2) d00 (+ y (/ d 2)) (+ y (/ d 2)))) (* (+ a b) (+ a b) (/ b 2) (/ b 2) (/ b 2) (/ b 2) (/ b 2) b00 (/ d 2) (/ d 2) (/ d 2) (/ d 2) (/ d 2) (+ y (/ d 2)) (+ y (/ d 2)) (+ y (/ d 2)) (+ y (/ d 2))) (* (+ a b) (+ a b) (/ b 2) (/ b 2) (/ b 2) (/ b 2) (/ b 2) b00 (/ d 2) (/ d 2) (/ d 2) (+ y (/ d 2)) (+ y (/ d 2)) (+ y (/ d 2))) (* (+ a b) (/ b 2) (/ b 2) (/ b 2) (/ b 2) (/ b 2) (/ b 2) (/ d 2) (/ d 2) d00 (+ y (/ d 2)) (+ y (/ d 2)) (+ y (/ d 2))) (* (+ a b) (/ b 2) (/ b 2) (/ b 2) (/ b 2) (/ b 2) (/ d 2) (/ d 2) (/ d 2) d00)) (* (+ a b) (/ b 2) (/ b 2) (/ b 2) (/ b 2) (/ b 2) b00 (/ d 2) (/ d 2) (/ d 2) (+ y (/ d 2)) (+ y (/ d 2)) (+ y (/ d 2)))) (* (+ a b) (/ b 2) (/ b 2) (/ b 2) (/ b 2) b00 (/ d 2) (/ d 2) (/ d 2) (/ d 2) (+ y (/ d 2))) (* (+ a b) (/ b 2) (/ b 2) (/ b 2) (/ b 2) (/ b 2) b00 (/ d 2) (/ d 2) (/ d 2) (+ y (/ d 2)) (+ y (/ d 2)))) (* (+ a b) (/ b 2) (/ b 2) (/ b 2) (/ b 2) (/ b 2) (/ b 2) d00 (+ y (/ d 2)))) (* (+ a b) (+ a b) (/ b 2) (/ b 2) (/ b 2) (/ b 2) (/ b 2) (/ d 2) (/ d 2) (/ d 2) (/ d 2) (/ d 2) d00 (+ y (/ d 2)) (+ y (/ d 2)))) (* (+ a b) (/ b 2) (/ b 2) (/ b 2) (/ b 2) (/ b 2) b00 (/ d 2) (+ y (/ d 2)) (+ y (/ d 2))) (* (+ a b) (+ a b) (/ b 2) (/ b 2) (/ b 2) (/ b 2) (/ b 2) (/ b 2) (/ d 2) (/ d 2) (/ d 2) (/ d 2) d00 (+ y (/ d 2)) (+ y (/ d 2)) (+ y (/ d 2)) (+ y (/ d 2))) (* (+ a b) (+ a b) (/ b 2) (/ b 2) (/ b 2) (/ b 2) (/ b 2) (/ b 2) (/ d 2) (/ d 2) d00 (+ y (/ d 2)) (+ y (/ d 2)) (+ y (/ d 2)))) 0))
			)
		)
	)
)
(check-sat)
(get-proof)
(exit)
